c ---- [ banner ] ------------------------------------------------------------
c
c Kissat SAT Solver
c 
c Copyright (c) 2021-2024 Armin Biere University of Freiburg
c Copyright (c) 2019-2021 Armin Biere Johannes Kepler University Linz
c 
c Version 4.0.1 43f02cf3e992cb44653b35e5cb26f93281552ae0
c gcc (Ubuntu 13.2.0-23ubuntu4) 13.2.0 -W -Wall -O3 -DNDEBUG
c Thu Sep 12 12:27:46 CEST 2024 Linux abryzen9 6.8.0-41-generic x86_64
c
c ---- [ parsing ] -----------------------------------------------------------
c
c opened and reading DIMACS file:
c
c   /data/artifact/AMulet2.0_artifact/exp4/cnf_resyn3_64/64_64_U1_DT_RC_Multgen_resyn3.cnf
c
c parsed 'p cnf 24914 112335' header
c closing input after reading 2230773 bytes (2 MB)
c finished parsing after 0.02 seconds
c
c ---- [ options ] -----------------------------------------------------------
c
c --stable=0                       (different from default '1')
c
c ---- [ solving ] -----------------------------------------------------------
c
c  seconds switched rate     size/glue tier1  binary          remaining
c         MB reductions conflicts size  tier2    irredundant
c          level restarts redundant glue  trail          variables
c
c *  0.02  9 0 0 0  0 0   0   0 0.0 0 0 0 0 0% 8737 103596 24911 100%
c (  0.03 11 0 0 0  0 0   0   0 0.0 0 0 0 0 0% 8737 103596 24911 100%
c .  0.04 11 0 0 0  0 0   0   0 0.0 0 0 0 0 0% 8733 103596 24911 100%
c =  0.10 16 0 0 0  0 0   0   0 0.0 0 0 0 0 0% 9027 103592 24817 100%
c d  0.11 16 0 0 0  0 0   0   0 0.0 0 0 0 0 0% 8839 103592 24817 100%
c f  0.20 15 0 0 0  0 0   0   0 0.0 0 0 0 0 0% 13716 95930 27579 111%
c e  0.37 18 0 0 0  0 0   0   0 0.0 0 0 0 0 0% 8306 103501 18663 75%
c )  0.37 18 0 0 0  0 0   0   0 0.0 0 0 0 0 0% 8306 103501 18663 75%
c {  0.40 25 0 0 0  0 0   0   0 0.0 0 0 2 6 0% 8306 103501 18663 75%
c -  0.72 25 203 0 1 230 40 1000 747 3.4 21 6 4 10 29% 8330 103500 18663 75%
c -  1.17 25 220 0 2 436 45 2002 1400 5.2 39 8 4 12 30% 8350 103500 18663 75%
c d  1.28 25 240 0 2 479 44 2502 1801 5.1 37 7 4 12 28% 8358 103500 18655 75%
c u  1.31 25 240 0 2 479 44 2502 1432 5.1 37 7 4 12 28% 8364 103500 18655 75%
c v  1.34 25 240 0 2 479 44 2502 1213 5.1 37 7 4 12 28% 8364 103500 18655 75%
c w  1.37 25 240 0 2 479 44 2502 1213 5.1 37 7 4 12 28% 8364 103500 18655 75%
c =  1.51 25 240 0 2 479 44 2502 1213 5.1 37 7 4 12 28% 8690 103500 18492 74%
c d  1.52 25 240 0 2 479 44 2502 1212 5.1 37 7 4 12 28% 8364 103500 18492 74%
c f  1.58 25 240 0 2 479 44 2502 1212 5.1 37 7 4 12 28% 8956 102300 19098 77%
c c  1.66 22 240 0 2 479 44 2502 1210 5.1 37 7 4 12 28% 8957 102292 19097 77%
c d  1.66 22 240 0 2 479 44 2502 1210 5.1 37 7 4 12 28% 8955 102292 19097 77%
c
c  seconds   switched   rate       size/glue tier1     binary          remaining
c         MB  reductions conflicts       size  tier2      irredundant
c           level restarts    redundant    glue    trail          variables
c
c u  1.69 22 240 0 2 479 44 2502 1166 5.1 37 7 4 12 28% 8957 102292 19097 77%
c v  1.70 22 240 0 2 479 44 2502 1135 5.1 37 7 4 12 28% 8957 102292 19097 77%
c w  1.75 22 240 0 2 479 44 2502 1131 5.1 37 7 4 12 28% 8957 102292 19097 77%
c =  1.84 24 240 0 2 479 44 2502 1131 5.1 37 7 4 12 28% 9461 102292 18845 76%
c d  1.85 24 240 0 2 479 44 2502 1130 5.1 37 7 4 12 28% 8900 102292 18845 76%
c f  1.90 24 240 0 2 479 44 2502 1130 5.1 37 7 4 12 28% 8944 102225 18867 76%
c -  2.35 27 236 0 3 631 46 3419 1616 5.7 44 8 4 12 30% 8989 102225 18867 76%
c -  2.70 27 309 0 4 740 38 5151 2653 5.0 36 7 3 11 29% 9047 102225 18867 76%
c -  3.03 27 347 0 5 876 35 7151 3708 4.6 31 7 3 10 27% 9107 102225 18867 76%
c d  3.13 27 356 0 5 909 35 7704 4182 4.5 31 7 3 10 27% 9022 102225 18819 76%
c u  3.17 27 356 0 5 909 35 7704 3499 4.5 31 7 3 10 27% 9039 102225 18819 76%
c v  3.21 27 356 0 5 909 35 7704 3198 4.5 31 7 3 10 27% 9039 102225 18819 76%
c w  3.24 27 356 0 5 909 35 7704 3198 4.5 31 7 3 10 27% 9039 102225 18819 76%
c x  3.26 27 356 0 5 909 35 7704 3198 4.5 31 7 3 10 27% 9039 101670 18819 76%
c =  3.39 27 356 0 5 909 35 7704 3198 4.5 31 7 3 10 27% 9919 101670 18379 74%
c d  3.40 27 356 0 5 909 35 7704 3152 4.5 31 7 3 10 27% 8910 101670 18378 74%
c f  3.46 27 356 0 5 909 35 7704 3152 4.5 31 7 3 10 27% 9148 101306 18497 74%
c u  3.50 27 356 0 5 909 35 7704 3018 4.5 31 7 3 10 27% 9149 101306 18497 74%
c v  3.53 27 356 0 5 909 35 7704 2924 4.5 31 7 3 10 27% 9149 101306 18497 74%
c w  3.57 27 356 0 5 909 35 7704 2922 4.5 31 7 3 10 27% 9149 101306 18497 74%
c
c  seconds   switched   rate       size/glue tier1     binary          remaining
c         MB  reductions conflicts       size  tier2      irredundant
c           level restarts    redundant    glue    trail          variables
c
c x  3.60 27 356 0 5 909 35 7704 2922 4.5 31 7 3 10 27% 9149 100857 18497 74%
c =  3.71 27 356 0 5 909 35 7704 2922 4.5 31 7 3 10 27% 9983 100857 18080 73%
c d  3.72 27 356 0 5 909 35 7704 2902 4.5 31 7 3 10 27% 9038 100857 18080 73%
c t  3.74 27 356 0 5 909 35 7704 2902 4.5 31 7 3 10 27% 9031 100857 18080 73%
c f  3.78 27 356 0 5 909 35 7704 2902 4.5 31 7 3 10 27% 10743 98287 18936 76%
c -  4.18 27 380 0 6 1056 33 9388 3692 4.5 31 7 2 9 27% 10790 98287 18936 76%
c o  4.40 27 372 0 6 1121 33 10007 4267 4.4 31 7 2 9 27% 10799 98287 18936 76%
c -  4.78 27 390 0 7 1232 34 11837 4988 4.4 30 7 2 9 27% 10836 98287 18936 76%
c s  5.05 27 396 0 7 1319 35 12505 5595 4.5 31 7 2 9 27% 10844 92767 18936 76%
c e  5.16 27 396 0 7 1319 35 12505 5595 4.5 31 7 2 9 27% 10663 92876 18805 75%
c 2  5.16 27 396 0 7 1319 35 12505 5595 4.5 31 7 2 9 27% 10661 92876 18805 75%
c s  5.17 27 396 0 7 1319 35 12505 5595 4.5 31 7 2 9 27% 10663 92814 18805 75%
c e  5.17 27 396 0 7 1319 35 12505 5595 4.5 31 7 2 9 27% 10659 92816 18803 75%
c ^  5.17 27 396 0 7 1319 35 12505 5595 4.5 31 7 2 9 27% 10659 92816 18803 75%
c -  5.81 27 385 0 8 1543 36 14483 6170 4.6 32 7 2 9 27% 10740 92816 18803 75%
c c  6.15 27 381 0 8 1635 36 15783 7248 4.5 32 7 2 9 27% 10807 92618 18762 75%
c d  6.16 27 381 0 8 1635 36 15783 7199 4.5 32 7 2 9 27% 10326 92618 18537 74%
c u  6.20 27 381 0 8 1635 36 15783 6442 4.5 32 7 2 9 27% 10343 92618 18537 74%
c v  6.25 27 381 0 8 1635 36 15783 5513 4.5 32 7 2 9 27% 10345 92618 18537 74%
c w  6.33 27 381 0 8 1635 36 15783 5512 4.5 32 7 2 9 27% 10345 92618 18537 74%
c
c  seconds   switched    rate        size/glue tier1    binary          remaining
c         MB  reductions   conflicts       size  tier2      irredundant
c           level  restarts     redundant    glue   trail          variables
c
c x  6.36 27 381 0 8 1635 36 15783 5512 4.5 32 7 2 9 27% 10345 92542 18537 74%
c =  6.57 27 381 0 8 1635 36 15783 5512 4.5 32 7 2 9 27% 11067 92540 18176 73%
c d  6.58 27 381 0 8 1635 36 15783 5407 4.5 32 7 2 9 27% 10219 92540 18175 73%
c t  6.60 27 381 0 8 1635 36 15783 5407 4.5 32 7 2 9 27% 10135 92540 18175 73%
c f  6.66 27 381 0 8 1635 36 15783 5407 4.5 32 7 2 9 27% 10139 92532 18177 73%
c u  6.71 27 381 0 8 1635 36 15783 5233 4.5 32 7 2 9 27% 10144 92532 18177 73%
c v  6.75 27 381 0 8 1635 36 15783 5084 4.5 32 7 2 9 27% 10144 92532 18177 73%
c w  6.85 27 381 0 8 1635 36 15783 5061 4.5 32 7 2 9 27% 10144 92532 18177 73%
c =  7.05 27 381 0 8 1635 36 15783 5061 4.5 32 7 2 9 27% 11486 92532 17506 70%
c d  7.06 27 381 0 8 1635 36 15783 5038 4.5 32 7 2 9 27% 9884 92532 17506 70%
c t  7.08 27 381 0 8 1635 36 15783 5038 4.5 32 7 2 9 27% 9883 92532 17506 70%
c f  7.11 27 381 0 8 1635 36 15783 5038 4.5 32 7 2 9 27% 9885 92527 17507 70%
c -  7.41 27 371 0 9 1729 35 17311 5513 4.4 31 7 2 9 26% 9938 92527 17507 70%
c o  8.33 27 349 0 9 2060 35 20007 7819 4.5 33 7 2 9 27% 10002 92527 17507 70%
c -  8.49 27 345 0 10 2112 35 20311 7104 4.5 34 7 2 9 27% 10002 92527 17507 70%
c -  9.33 27 328 0 11 2388 34 23473 8602 4.5 34 8 2 9 27% 10053 92527 17507 70%
c s  9.59 27 321 0 11 2458 33 25005 9897 4.4 33 8 2 9 27% 10107 87653 17507 70%
c e  9.69 27 321 0 11 2458 33 25005 9897 4.4 33 8 2 9 27% 8509 89910 16410 66%
c s  9.70 27 321 0 11 2458 33 25005 9897 4.4 33 8 2 9 27% 8509 89469 16410 66%
c ^  9.71 27 321 0 11 2458 33 25005 9897 4.4 33 8 2 9 27% 8509 89469 16410 66%
c
c  seconds   switched     rate        size/glue tier1    binary         remaining
c         MB   reductions   conflicts       size  tier2     irredundant
c           level   restarts     redundant    glue   trail         variables
c
c - 10.13 27 314 0 12 2583 33 26789 8953 4.4 33 8 2 9 27% 8554 89469 16410 66%
c c 10.22 27 313 0 12 2585 32 26909 9060 4.4 33 8 2 9 27% 8628 89069 16354 66%
c d 10.23 27 313 0 12 2585 32 26909 9025 4.4 33 8 2 9 27% 8356 89069 16258 65%
c u 10.27 27 313 0 12 2585 32 26909 8099 4.4 33 8 2 9 27% 8371 89069 16258 65%
c v 10.31 27 313 0 12 2585 32 26909 7071 4.4 33 8 2 9 27% 8373 89069 16258 65%
c w 10.32 27 313 0 12 2585 32 26909 7069 4.4 33 8 2 9 27% 8373 89069 16258 65%
c x 10.37 27 313 0 12 2585 32 26909 7069 4.4 33 8 2 9 27% 8373 87313 16258 65%
c = 10.56 27 313 0 12 2585 32 26909 7069 4.4 33 8 2 9 27% 12365 87313 14262 57%
c d 10.57 27 313 0 12 2585 32 26909 6701 4.4 33 8 2 9 27% 8225 87313 14261 57%
c t 10.58 27 313 0 12 2585 32 26909 6701 4.4 33 8 2 9 27% 8224 87313 14261 57%
c f 10.62 27 313 0 12 2585 32 26909 6701 4.4 33 8 2 9 27% 8228 87297 14263 57%
c c 10.65 27 313 0 12 2585 32 26909 6698 4.4 33 8 2 9 27% 8238 87257 14258 57%
c d 10.66 27 313 0 12 2585 32 26909 6698 4.4 33 8 2 9 27% 8228 87257 14258 57%
c u 10.68 27 313 0 12 2585 32 26909 6116 4.4 33 8 2 9 27% 8231 87257 14258 57%
c v 10.70 27 313 0 12 2585 32 26909 5952 4.4 33 8 2 9 27% 8231 87257 14258 57%
c w 10.71 27 313 0 12 2585 32 26909 5951 4.4 33 8 2 9 27% 8231 87257 14258 57%
c x 10.77 27 313 0 12 2585 32 26909 5951 4.4 33 8 2 9 27% 8231 79524 14258 57%
c = 10.97 27 313 0 12 2585 32 26909 5951 4.4 33 8 2 9 27% 10777 79262 12955 52%
c d 10.98 27 313 0 12 2585 32 26909 5896 4.4 33 8 2 9 27% 8204 79262 12955 52%
c - 11.29 27 289 0 13 2742 30 30253 7617 4.2 31 7 2 9 27% 8240 79246 12955 52%
c
c  seconds   switched     rate        size/glue tier1    binary         remaining
c         MB   reductions   conflicts       size  tier2     irredundant
c           level   restarts     redundant    glue   trail         variables
c
c - 11.53 27 269 0 14 2951 28 33859 9308 4.0 29 7 2 8 26% 8310 79242 12955 52%
c - 11.95 27 254 0 15 3294 27 37603 10933 3.8 28 7 2 8 27% 8373 79242 12955 52%
c o 12.22 27 245 0 15 3494 27 40008 13093 3.7 27 7 2 8 27% 8409 79242 12955 52%
c d 12.36 27 241 0 15 3637 27 41243 13675 3.7 27 7 2 8 27% 8231 79242 12846 52%
c u 12.39 27 241 0 15 3637 27 41243 11342 3.7 27 7 2 8 27% 8250 79242 12846 52%
c v 12.43 27 241 0 15 3637 27 41243 10666 3.7 27 7 2 8 27% 8250 79242 12846 52%
c w 12.45 27 241 0 15 3637 27 41243 10666 3.7 27 7 2 8 27% 8250 79242 12846 52%
c x 12.49 27 241 0 15 3637 27 41243 10666 3.7 27 7 2 8 27% 8252 71812 12846 52%
c = 12.64 27 241 0 15 3637 27 41243 10666 3.7 27 7 2 8 27% 8350 71807 12796 51%
c d 12.64 27 241 0 15 3637 27 41243 10449 3.7 27 7 2 8 27% 8222 71807 12792 51%
c t 12.65 27 241 0 15 3637 27 41243 10449 3.7 27 7 2 8 27% 8221 71807 12792 51%
c c 12.70 27 241 0 15 3637 27 41243 10449 3.7 27 7 2 8 27% 8272 71549 12762 51%
c d 12.70 27 241 0 15 3637 27 41243 10341 3.7 27 7 2 8 27% 8212 71549 12762 51%
c u 12.73 27 241 0 15 3637 27 41243 9928 3.7 27 7 2 8 27% 8216 71549 12762 51%
c v 12.77 27 241 0 15 3637 27 41243 9126 3.7 27 7 2 8 27% 8217 71549 12762 51%
c w 12.78 27 241 0 15 3637 27 41243 9121 3.7 27 7 2 8 27% 8217 71549 12762 51%
c x 12.82 27 241 0 15 3637 27 41243 9121 3.7 27 7 2 8 27% 8217 69104 12762 51%
c d 12.96 27 241 0 15 3637 27 41243 9121 3.7 27 7 2 8 27% 8215 69104 12761 51%
c - 12.98 27 240 0 16 3637 26 41477 8041 3.7 27 7 2 8 27% 8222 69104 12761 51%
c - 13.24 27 227 0 17 3825 25 45477 9899 3.5 26 7 2 8 27% 8305 69104 12761 51%
c
c  seconds   switched     rate         size/glue tier1    binary         remaining
c         MB   reductions   conflicts        size  tier2     irredundant
c           level   restarts      redundant    glue   trail         variables
c
c - 13.67 27 216 0 18 4235 24 49601 11781 3.4 25 7 2 7 27% 8378 69104 12761 51%
c s 13.89 27 210 0 18 4407 23 52105 13861 3.4 25 7 2 7 27% 8445 64092 12761 51%
c e 13.93 27 210 0 18 4407 23 52105 13861 3.4 25 7 2 7 27% 7859 64216 12288 49%
c s 13.94 27 210 0 18 4407 23 52105 13861 3.4 25 7 2 7 27% 7859 63638 12288 49%
c ^ 13.94 27 210 0 18 4407 23 52105 13861 3.4 25 7 2 7 27% 7859 63638 12288 49%
c - 14.02 27 204 0 19 4471 23 53845 11088 3.3 24 7 2 7 26% 7926 63638 12288 49%
c i 14.30 27 198 0 19 4753 23 56753 13559 3.3 24 7 2 7 26% 7984 63638 12287 49%
c - 14.45 27 195 0 20 4876 22 58203 12884 3.2 24 7 2 7 26% 8001 63638 12287 49%
c c 14.52 27 194 0 20 4920 22 58909 13456 3.2 24 7 2 7 26% 8077 62784 12173 49%
c d 14.52 27 194 0 20 4920 22 58909 12712 3.2 24 7 2 7 26% 7851 62782 12173 49%
c d 14.52 27 194 0 20 4920 22 58909 12712 3.2 24 7 2 7 26% 7849 62782 12172 49%
c u 14.55 27 194 0 20 4920 22 58909 10900 3.2 24 7 2 7 26% 7864 62782 12171 49%
c v 14.58 27 194 0 20 4920 22 58909 10218 3.2 24 7 2 7 26% 7862 62782 12171 49%
c w 14.60 27 194 0 20 4920 22 58909 10212 3.2 24 7 2 7 26% 7862 62782 12171 49%
c x 14.63 27 194 0 20 4920 22 58909 10203 3.2 24 7 2 7 26% 7866 62486 12171 49%
c d 14.64 27 194 0 20 4920 22 58909 10150 3.2 24 7 2 7 26% 7852 62486 12165 49%
c t 14.65 27 194 0 20 4920 22 58909 10150 3.2 24 7 2 7 26% 7851 62486 12165 49%
c c 14.69 27 194 0 20 4920 22 58909 10150 3.2 24 7 2 7 26% 7851 62478 12164 49%
c d 14.69 27 194 0 20 4920 22 58909 10149 3.2 24 7 2 7 26% 7849 62478 12164 49%
c u 14.72 27 194 0 20 4920 22 58909 9787 3.2 24 7 2 7 26% 7851 62478 12164 49%
c
c  seconds   switched     rate        size/glue tier1    binary         remaining
c         MB   reductions   conflicts       size  tier2     irredundant
c           level   restarts     redundant    glue   trail         variables
c
c v 14.75 27 194 0 20 4920 22 58909 9174 3.2 24 7 2 7 26% 7853 62478 12164 49%
c w 14.77 27 194 0 20 4920 22 58909 9157 3.2 24 7 2 7 26% 7853 62478 12164 49%
c x 14.81 27 194 0 20 4920 22 58909 9157 3.2 24 7 2 7 26% 7853 62432 12164 49%
c = 14.98 27 194 0 20 4920 22 58909 9157 3.2 24 7 2 7 26% 7873 62432 12154 49%
c d 14.98 27 194 0 20 4920 22 58909 9141 3.2 24 7 2 7 26% 7843 62432 12151 49%
c i 15.00 27 194 0 20 4920 22 58909 9141 3.2 24 7 2 7 26% 7843 62432 12151 49%
c - 15.23 27 187 0 21 5222 22 62675 10852 3.2 23 7 2 7 26% 7926 62432 12151 49%
c i 15.51 27 179 0 21 5505 21 67029 14374 3.1 22 7 2 6 25% 8029 62432 12150 49%
c - 15.53 27 178 0 22 5543 21 67257 12691 3.1 22 7 2 6 25% 8027 62432 12150 49%
c i 15.54 27 177 0 22 5543 21 67660 12921 3.1 22 7 2 6 25% 8053 62432 12146 49%
c i 15.62 27 176 0 22 5667 21 68501 13656 3.1 22 7 2 6 25% 8069 62432 12145 49%
c i 15.71 27 174 0 22 5796 20 69792 14751 3.1 22 7 2 6 25% 8093 62432 12144 49%
c o 15.73 27 173 0 22 5814 20 70113 14995 3.1 22 7 2 6 25% 8103 62432 12144 49%
c i 15.74 27 173 0 22 5829 20 70237 15096 3.1 22 7 2 6 25% 8107 62432 12143 49%
c i 15.82 27 172 0 22 5951 20 70995 15793 3.0 22 7 2 6 25% 8113 62432 12142 49%
c - 15.87 27 170 0 23 6041 20 71947 13907 3.0 22 7 2 6 25% 8109 62432 12142 49%
c i 15.96 27 165 0 23 6183 20 74367 15765 3.0 22 7 2 6 24% 8182 62432 12139 49%
c i 15.96 27 165 0 23 6191 20 74541 15908 3.0 22 7 2 6 24% 8186 62432 12138 49%
c i 15.97 27 164 0 23 6206 20 74757 16092 3.0 22 7 2 6 24% 8191 62432 12137 49%
c i 15.98 27 164 0 23 6209 20 74902 16185 3.0 22 7 2 6 24% 8196 62432 12136 49%
c
c  seconds   switched     rate         size/glue tier1    binary         remaining
c         MB   reductions   conflicts        size  tier2     irredundant
c           level   restarts      redundant    glue   trail         variables
c
c i 15.99 27 164 0 23 6230 19 75217 16392 3.0 22 7 2 6 24% 8209 62432 12135 49%
c i 15.99 27 163 0 23 6230 19 75282 16445 3.0 22 7 2 6 24% 8209 62432 12134 49%
c i 15.99 27 163 0 23 6230 19 75555 16634 3.0 22 7 2 6 24% 8216 62432 12133 49%
c i 15.99 27 163 0 23 6230 19 75587 16650 3.0 22 7 2 6 24% 8218 62432 12132 49%
c i 15.99 27 163 0 23 6230 19 75589 16649 3.0 22 7 2 6 24% 8219 62432 12131 49%
c i 15.99 27 162 0 23 6235 19 75687 16719 3.0 22 7 2 6 24% 8227 62432 12130 49%
c i 15.99 27 162 0 23 6235 19 75705 16721 3.0 22 7 2 6 24% 8230 62432 12129 49%
c i 15.99 27 162 0 23 6235 19 75722 16723 3.0 22 7 2 6 24% 8235 62432 12127 49%
c i 15.99 27 162 0 23 6235 19 75727 16724 3.0 22 7 2 6 24% 8236 62431 12125 49%
c } 15.99 27 162 0 23 6235 19 75733 16725 3.0 22 7 2 6 24% 8238 62431 12117 49%
c 0 15.99 27 162 0 23 6235 19 75733 16725 3.0 22 7 2 6 24% 8238 62431 12117 49%
c
c ---- [ result ] ------------------------------------------------------------
c
s UNSATISFIABLE
c
c ---- [ profiling ] ---------------------------------------------------------
c
c          10.90   68.16 %  search
c          10.90   68.16 %  focused
c           4.70   29.36 %  simplify
c           4.48   28.01 %  probe
c           1.73   10.82 %  sweep
c           1.49    9.31 %  vivify
c           0.46    2.89 %  factor
c           0.38    2.39 %  eliminate
c           0.35    2.19 %  congruence
c           0.34    2.11 %  preprocess
c           0.32    2.02 %  substitute
c           0.17    1.04 %  fastel
c           0.11    0.69 %  reduce
c           0.08    0.53 %  transitive
c           0.07    0.46 %  subsume
c           0.04    0.26 %  lucky
c           0.04    0.25 %  backbone
c           0.02    0.12 %  parse
c =============================================
c          15.99  100.00 %  total
c
c ---- [ statistics ] --------------------------------------------------------
c
c chronological:                         2378                3 %  conflicts
c conflicts:                            75733             4734.83 per second
c congruent:                              248                1 %  variables
c decisions:                          1466087               19.36 per conflict
c eliminated:                           10619               43 %  variables
c factored:                              4370               18 %  variables
c fast_eliminated:                       8916               84 %  eliminated
c fast_subsumed:                          238                1 %  per subsumed
c iterations:                              21                0 %  variables
c propagations:                      63070613          3943181    per second
c reductions:                              23             3293    interval
c reordered:                                4            18933    interval
c restarts:                              6235               12    interval
c strengthened:                           131                0 %  checks
c substituted:                           6475               26 %  variables
c subsumed:                             16723                1 %  checks
c switched:                                 0                0    interval
c vivified:                             39779               13 %  checks
c
c ---- [ glue usage ] --------------------------------------------------------
c
c focused glue 2 used 40664 clauses 27.96% accumulated 70.74% tier1
c focused glue 3 used 12687 clauses  8.72% accumulated 79.46%
c focused glue 4 used  7577 clauses  5.21% accumulated 84.67%
c focused glue 5 used  4933 clauses  3.39% accumulated 88.06%
c focused glue 6 used  3476 clauses  2.39% accumulated 90.45% tier2
c
c ---- [ resources ] ---------------------------------------------------------
c
c maximum-resident-set-size:         28233728 bytes         27 MB
c process-time:                            16s              15.99 seconds
c
c ---- [ shutting down ] -----------------------------------------------------
c
c exit 20
